\ LP format - for model browsing. Use MPS format to capture full model detail.
Maximize
  3 x_1 + 10 x_2 + 5 x_3 + 7 x_4 + 4 x_5 + 8 x_6 + 6 x_7 + 3 x_8 + 10 x_9
   + 5 x_10 + 5 x_11 + 8 x_12 + 3 x_13 + 7 x_14 + 3 x_15 + 2 x_16 + 10 x_17
   + x_18 + x_19 + 6 x_20 + 8 x_21 + 9 x_22 + x_23 + 9 x_24 + 5 x_25
Subject To
 C_1: 6 x_4 + 7 x_5 + 3 x_7 + 8 x_8 + 7 x_10 + 8 x_17 + 6 x_20 + 6 x_22
   + 10 x_25 <= 30
 C_2: 6 x_5 + 7 x_8 + 7 x_12 + x_13 + 2 x_14 + 2 x_17 + 6 x_18 + 4 x_21
   + 2 x_24 + 7 x_25 <= 22
 C_3: 7 x_4 + 5 x_5 + 4 x_8 + 7 x_9 + 4 x_15 + 5 x_16 + 10 x_18 + 7 x_19
   + 10 x_22 + 6 x_24 <= 32
 C_4: 10 x_1 + 5 x_4 + 5 x_5 + 7 x_6 + 2 x_8 + 7 x_9 + 7 x_10 + 6 x_11
   + 6 x_14 + 3 x_18 + 8 x_21 + 2 x_22 + 8 x_23 <= 38
 C_5: 10 x_2 + x_4 + 5 x_6 + 4 x_7 + 2 x_8 + 9 x_9 + 10 x_10 + 3 x_13
   + 3 x_16 + 10 x_17 + 9 x_21 <= 33
 C_6: 6 x_6 + 2 x_7 + 3 x_9 + 8 x_12 + 7 x_13 + 5 x_16 + 4 x_17 + 2 x_19
   + 4 x_20 + x_23 <= 21
 C_7: x_5 + 8 x_9 + 10 x_10 + 2 x_13 + 3 x_14 + 10 x_15 + 9 x_16 + 4 x_17
   + 5 x_22 + 3 x_23 <= 27
 C_8: 3 x_1 + 6 x_2 + 4 x_4 + 2 x_5 + 10 x_6 + 6 x_8 + 6 x_10 + 4 x_12
   + 6 x_13 + 6 x_14 + 6 x_15 + 3 x_16 + 7 x_25 <= 34
 C_9: 7 x_3 + 5 x_5 + 10 x_6 + 8 x_8 + 5 x_9 + 3 x_11 + 5 x_14 + 8 x_15
   + 6 x_17 + 2 x_20 + 10 x_23 <= 34
 C_10: 10 x_1 + 2 x_2 + 7 x_3 + 5 x_4 + 4 x_5 + 8 x_7 + x_8 + 5 x_11
   + 6 x_15 + 10 x_16 + 8 x_17 + 10 x_18 + x_19 + 2 x_21 + 3 x_23 + 6 x_24
   <= 44
Bounds
Binaries
 x_1 x_2 x_3 x_4 x_5 x_6 x_7 x_8 x_9 x_10 x_11 x_12 x_13 x_14 x_15 x_16
 x_17 x_18 x_19 x_20 x_21 x_22 x_23 x_24 x_25
End
